Total weight: 1459.7
Route 1: 0 39 36 42 45 79 73 47 14 12 99 88 78 53 98 0 
Route 2: 0 62 23 86 87 9 10 97 58 74 13 17 0 
Route 3: 0 92 95 85 63 33 28 30 27 29 31 34 50 67 71 72 81 96 94 84 32 26 37 35 43 54 93 80 0 
Route 4: 0 65 52 59 75 16 15 11 82 83 64 51 76 18 21 19 49 22 20 57 66 91 56 89 48 25 77 24 0 
Route 5: 0 61 41 38 40 44 2 6 7 8 46 5 3 1 68 55 60 4 100 70 0 
Route 6: 0 69 90 0 
